jobs  (incl. supersource/sink ):	52
RESOURCES
- renewable                 : 4 R
- nonrenewable              : 2 N
- doubly constrained        : 0 D
************************************************************************
PRECEDENCE RELATIONS:
jobnr.    #modes  #successors   successors
1	1	17		2 3 4 5 6 7 8 9 10 12 14 15 17 19 20 22 26 
2	6	11		51 49 48 35 34 29 28 27 24 21 16 
3	6	9		48 44 35 34 31 30 25 16 13 
4	6	8		48 34 29 27 25 23 18 11 
5	6	11		47 45 43 34 33 30 29 28 27 23 21 
6	6	7		44 35 33 29 25 21 16 
7	6	12		51 49 46 44 43 41 35 34 33 32 27 25 
8	6	6		51 50 48 43 27 13 
9	6	9		50 49 46 43 42 30 29 27 25 
10	6	8		46 43 34 32 29 28 27 21 
11	6	12		50 47 45 44 43 42 41 40 39 38 37 33 
12	6	7		45 44 34 33 32 27 25 
13	6	6		45 41 38 33 32 21 
14	6	5		46 44 42 27 25 
15	6	5		49 40 32 28 27 
16	6	8		47 46 45 43 39 38 37 32 
17	6	5		42 41 37 30 25 
18	6	6		46 40 38 37 36 28 
19	6	5		44 43 38 36 28 
20	6	5		42 40 39 37 30 
21	6	5		42 40 39 37 36 
22	6	5		45 41 38 37 36 
23	6	4		44 41 38 36 
24	6	4		44 40 37 36 
25	6	3		40 39 36 
26	6	2		37 34 
27	6	2		38 37 
28	6	2		41 39 
29	6	2		41 36 
30	6	2		38 36 
31	6	2		43 38 
32	6	1		36 
33	6	1		36 
34	6	1		36 
35	6	1		37 
36	6	1		52 
37	6	1		52 
38	6	1		52 
39	6	1		52 
40	6	1		52 
41	6	1		52 
42	6	1		52 
43	6	1		52 
44	6	1		52 
45	6	1		52 
46	6	1		52 
47	6	1		52 
48	6	1		52 
49	6	1		52 
50	6	1		52 
51	6	1		52 
52	1	0		
************************************************************************
REQUESTS/DURATIONS
jobnr.	mode	dur	R1	R2	R3	R4	N1	N2	
------------------------------------------------------------------------
1	1	0	0	0	0	0	0	0	
2	1	3	1	2	1	1	29	18	
	2	8	1	2	1	1	29	12	
	3	10	1	2	1	1	29	10	
	4	13	1	2	1	1	29	9	
	5	14	1	2	1	1	29	6	
	6	20	1	2	1	1	29	4	
3	1	5	3	5	2	3	10	26	
	2	13	3	5	2	2	10	26	
	3	14	3	5	2	2	9	25	
	4	15	3	5	2	1	9	24	
	5	16	3	5	1	1	9	23	
	6	18	3	5	1	1	8	23	
4	1	7	3	4	4	3	13	20	
	2	10	3	3	4	2	12	17	
	3	19	3	3	4	2	12	14	
	4	21	3	2	3	2	11	10	
	5	23	2	2	2	1	9	8	
	6	26	2	2	2	1	8	6	
5	1	5	4	3	4	1	20	27	
	2	7	4	2	3	1	19	23	
	3	8	4	2	3	1	19	20	
	4	11	3	2	3	1	18	17	
	5	25	3	1	3	1	18	14	
	6	28	3	1	3	1	18	10	
6	1	3	4	4	3	2	16	24	
	2	10	3	3	2	1	15	23	
	3	15	2	3	2	1	12	20	
	4	24	2	2	1	1	12	18	
	5	26	2	2	1	1	10	16	
	6	29	1	2	1	1	6	14	
7	1	5	2	2	1	5	18	5	
	2	13	2	2	1	4	17	4	
	3	16	2	2	1	3	12	4	
	4	17	2	2	1	3	11	4	
	5	23	2	2	1	2	7	2	
	6	25	2	2	1	2	3	2	
8	1	7	5	1	2	3	17	20	
	2	8	5	1	2	3	13	19	
	3	12	5	1	2	3	12	17	
	4	19	5	1	2	3	9	16	
	5	22	5	1	1	2	8	15	
	6	28	5	1	1	2	7	14	
9	1	2	2	5	3	4	8	27	
	2	4	2	5	3	3	8	27	
	3	6	2	5	3	3	8	25	
	4	18	1	5	2	2	8	24	
	5	19	1	5	2	2	8	23	
	6	20	1	5	2	2	8	22	
10	1	5	4	5	5	2	20	21	
	2	6	4	4	4	1	19	21	
	3	8	4	4	4	1	14	20	
	4	9	4	3	3	1	12	19	
	5	14	4	3	3	1	8	17	
	6	15	4	3	3	1	6	17	
11	1	6	5	3	4	2	10	25	
	2	9	4	2	4	2	10	24	
	3	15	3	2	4	2	8	21	
	4	16	2	2	4	2	8	18	
	5	18	1	2	4	2	5	18	
	6	21	1	2	4	2	4	14	
12	1	3	3	3	5	4	24	23	
	2	4	2	3	3	4	24	21	
	3	8	2	3	3	4	23	19	
	4	19	2	3	2	4	22	17	
	5	25	1	3	2	4	21	12	
	6	27	1	3	1	4	19	10	
13	1	1	3	5	3	3	12	27	
	2	6	3	4	2	3	11	25	
	3	13	3	4	2	3	11	20	
	4	21	3	4	2	3	10	18	
	5	23	3	4	2	3	9	17	
	6	25	3	4	2	3	9	14	
14	1	13	4	4	1	1	18	16	
	2	14	4	3	1	1	16	15	
	3	17	4	3	1	1	15	15	
	4	18	4	3	1	1	13	15	
	5	23	4	2	1	1	11	13	
	6	25	4	2	1	1	9	13	
15	1	1	4	4	2	3	22	23	
	2	9	4	4	2	2	21	20	
	3	14	4	4	2	2	21	19	
	4	20	4	4	2	2	21	18	
	5	21	4	4	2	2	21	14	
	6	22	4	4	2	2	21	13	
16	1	2	4	2	4	5	25	24	
	2	4	3	2	3	4	20	21	
	3	8	3	2	3	4	16	19	
	4	11	2	2	3	4	12	14	
	5	20	2	2	3	4	8	11	
	6	30	2	2	3	4	8	4	
17	1	9	2	4	2	1	14	27	
	2	10	1	4	2	1	13	22	
	3	14	1	4	2	1	13	21	
	4	15	1	3	2	1	12	14	
	5	18	1	3	2	1	10	11	
	6	22	1	2	2	1	8	8	
18	1	9	5	5	3	2	22	15	
	2	11	3	5	3	2	22	10	
	3	15	3	5	3	2	21	10	
	4	17	2	5	2	1	18	8	
	5	18	1	5	2	1	17	5	
	6	25	1	5	1	1	17	1	
19	1	1	3	4	4	2	21	28	
	2	7	3	4	4	2	20	21	
	3	8	3	4	3	2	20	15	
	4	13	3	4	3	2	18	10	
	5	16	3	3	2	1	17	5	
	6	28	3	3	2	1	16	3	
20	1	1	3	4	5	4	12	29	
	2	3	3	4	4	3	10	28	
	3	16	3	4	3	3	8	26	
	4	17	2	4	3	2	7	24	
	5	22	1	3	2	2	3	23	
	6	24	1	3	2	1	2	22	
21	1	2	4	1	5	4	11	25	
	2	3	3	1	3	4	9	22	
	3	12	3	1	3	4	9	20	
	4	22	3	1	3	4	8	12	
	5	23	2	1	1	4	7	7	
	6	24	2	1	1	4	6	5	
22	1	2	4	3	5	4	20	26	
	2	9	3	3	4	4	19	23	
	3	16	3	3	3	3	17	23	
	4	20	2	3	3	3	13	21	
	5	26	1	3	2	2	12	18	
	6	27	1	3	1	2	8	16	
23	1	12	5	4	4	1	28	6	
	2	16	4	4	3	1	22	5	
	3	18	4	4	3	1	19	4	
	4	24	4	4	2	1	15	4	
	5	26	3	4	2	1	15	2	
	6	27	3	4	1	1	9	2	
24	1	5	4	4	3	3	19	23	
	2	6	4	4	3	3	17	17	
	3	10	4	4	3	3	16	15	
	4	13	4	4	3	3	15	13	
	5	21	4	4	3	3	14	10	
	6	24	4	4	3	3	12	7	
25	1	3	4	5	2	3	9	15	
	2	8	3	4	1	3	8	14	
	3	21	2	4	1	3	8	14	
	4	28	2	4	1	2	8	14	
	5	29	1	4	1	2	7	14	
	6	30	1	4	1	2	7	13	
26	1	4	2	5	5	5	29	22	
	2	18	2	5	4	3	27	22	
	3	20	2	5	4	3	21	21	
	4	21	2	5	3	3	18	18	
	5	25	2	5	3	2	15	18	
	6	26	2	5	2	1	14	16	
27	1	2	3	3	2	4	14	16	
	2	5	3	3	2	4	12	15	
	3	15	3	3	2	4	9	15	
	4	18	3	3	2	4	9	14	
	5	22	3	3	2	4	6	14	
	6	24	3	3	2	4	1	13	
28	1	7	5	3	5	5	28	27	
	2	12	4	3	3	4	22	26	
	3	17	4	3	3	4	20	24	
	4	21	4	2	3	4	15	22	
	5	22	4	2	1	3	12	19	
	6	30	4	1	1	3	4	18	
29	1	7	2	3	2	3	28	20	
	2	15	1	3	1	2	27	19	
	3	16	1	3	1	2	24	19	
	4	23	1	3	1	2	22	18	
	5	27	1	3	1	2	19	18	
	6	29	1	3	1	2	19	17	
30	1	4	4	3	5	1	28	16	
	2	15	3	2	5	1	22	12	
	3	16	3	2	5	1	17	10	
	4	18	3	2	5	1	17	9	
	5	20	3	2	5	1	12	6	
	6	21	3	2	5	1	6	3	
31	1	11	4	4	3	4	21	28	
	2	17	4	4	3	4	18	27	
	3	21	4	3	3	4	15	25	
	4	25	4	3	3	3	14	23	
	5	26	4	3	3	2	12	20	
	6	29	4	2	3	2	11	20	
32	1	7	5	4	3	3	17	9	
	2	21	3	4	3	3	14	9	
	3	24	3	4	2	3	12	8	
	4	25	3	4	2	3	11	7	
	5	26	1	4	2	3	6	7	
	6	27	1	4	1	3	2	6	
33	1	11	4	3	4	5	14	17	
	2	14	4	3	4	4	13	15	
	3	17	4	3	4	4	12	12	
	4	19	4	3	4	3	12	11	
	5	28	4	3	3	2	11	7	
	6	29	4	3	3	2	11	6	
34	1	2	4	5	1	3	28	25	
	2	13	3	4	1	2	24	23	
	3	26	2	4	1	2	22	23	
	4	27	2	4	1	2	18	22	
	5	28	2	4	1	1	13	20	
	6	29	1	4	1	1	11	19	
35	1	8	4	3	3	5	29	22	
	2	14	4	2	2	4	29	18	
	3	15	4	2	2	4	29	16	
	4	19	4	1	1	3	29	15	
	5	23	4	1	1	3	29	12	
	6	25	4	1	1	3	29	11	
36	1	1	4	2	5	5	7	26	
	2	4	4	1	4	3	6	23	
	3	5	4	1	4	3	6	20	
	4	13	4	1	4	2	5	17	
	5	24	4	1	3	2	5	12	
	6	27	4	1	3	1	4	7	
37	1	2	5	3	3	5	22	12	
	2	10	3	3	2	4	22	10	
	3	11	3	3	2	3	22	10	
	4	16	3	3	2	2	22	8	
	5	22	1	3	2	1	21	6	
	6	28	1	3	2	1	21	3	
38	1	13	5	5	3	4	21	16	
	2	15	5	5	2	3	20	15	
	3	25	5	5	2	3	15	14	
	4	27	5	5	1	2	13	12	
	5	28	5	5	1	2	9	11	
	6	29	5	5	1	2	6	11	
39	1	5	5	1	5	4	24	17	
	2	6	5	1	4	3	24	13	
	3	7	5	1	3	3	24	13	
	4	8	5	1	3	3	23	9	
	5	15	5	1	3	1	23	8	
	6	24	5	1	2	1	23	6	
40	1	3	2	5	5	4	16	18	
	2	7	2	4	4	3	14	17	
	3	9	2	4	4	3	13	15	
	4	18	2	3	3	2	11	13	
	5	19	2	3	2	1	7	9	
	6	23	2	2	2	1	6	6	
41	1	2	3	4	3	3	25	26	
	2	13	3	4	3	2	25	22	
	3	14	3	3	3	2	24	20	
	4	18	2	3	3	2	23	18	
	5	19	2	2	3	2	21	16	
	6	26	2	2	3	2	20	11	
42	1	6	4	2	1	5	22	7	
	2	12	3	2	1	4	21	6	
	3	13	3	2	1	4	16	5	
	4	21	3	2	1	3	12	5	
	5	22	3	2	1	3	11	5	
	6	25	3	2	1	3	8	4	
43	1	2	2	5	1	4	12	26	
	2	8	2	4	1	3	11	23	
	3	14	2	4	1	3	10	20	
	4	20	1	3	1	3	7	17	
	5	29	1	3	1	2	6	17	
	6	30	1	3	1	2	5	15	
44	1	2	5	3	5	5	12	6	
	2	4	4	2	4	4	10	5	
	3	13	3	2	4	3	9	5	
	4	14	3	1	4	3	9	5	
	5	21	3	1	3	3	7	4	
	6	25	2	1	3	2	7	3	
45	1	1	5	3	4	5	23	15	
	2	2	5	2	3	4	22	15	
	3	12	5	2	3	4	21	13	
	4	15	5	2	3	4	19	12	
	5	16	5	1	2	3	19	9	
	6	23	5	1	2	3	18	8	
46	1	1	3	5	2	4	24	14	
	2	4	3	3	2	3	22	14	
	3	7	3	3	2	3	17	12	
	4	25	3	2	1	2	14	12	
	5	26	3	1	1	2	12	11	
	6	27	3	1	1	1	8	10	
47	1	8	2	5	1	2	17	19	
	2	11	1	5	1	2	17	15	
	3	23	1	5	1	2	16	10	
	4	24	1	5	1	1	15	8	
	5	25	1	5	1	1	15	4	
	6	26	1	5	1	1	14	3	
48	1	1	3	5	5	2	24	21	
	2	12	2	4	4	2	22	21	
	3	18	2	4	4	2	18	19	
	4	20	2	4	3	2	18	18	
	5	21	2	4	3	2	15	17	
	6	22	2	4	2	2	10	14	
49	1	13	3	1	5	4	19	20	
	2	14	3	1	4	4	15	19	
	3	19	2	1	3	4	12	19	
	4	24	2	1	2	4	12	19	
	5	25	2	1	2	4	9	18	
	6	28	1	1	1	4	3	18	
50	1	9	5	2	2	4	6	13	
	2	10	5	2	2	3	5	12	
	3	12	5	2	2	3	4	12	
	4	18	5	2	1	3	3	12	
	5	24	5	2	1	3	3	11	
	6	27	5	2	1	3	2	12	
51	1	3	2	4	4	4	20	9	
	2	8	2	4	3	4	20	8	
	3	9	2	4	3	4	18	7	
	4	17	2	4	2	4	17	5	
	5	18	2	4	2	3	14	5	
	6	21	2	4	2	3	14	3	
52	1	0	0	0	0	0	0	0	
************************************************************************

 RESOURCE AVAILABILITIES 
	R 1	R 2	R 3	R 4	N 1	N 2
	30	33	29	26	736	755

************************************************************************
